# Solution for model Model5
# Objective value = 44
y[0,0,3] 1
y[0,0,5] 0
y[0,1,0] 0
y[0,1,2] 1
y[0,2,3] 1
y[0,2,4] 0
y[1,0,2] 0
y[1,0,3] 1
y[1,1,2] 1
y[1,1,3] 0
y[1,2,1] 0
y[1,2,4] 1
y[2,0,1] 0
y[2,0,4] 1
y[2,1,1] 1
y[2,1,2] 0
y[2,2,0] 1
y[2,2,4] 0
y[3,0,2] 1
y[3,0,4] 0
y[3,1,4] 0
y[3,1,5] 1
y[3,2,1] 1
y[3,2,2] 0
y[4,0,0] 1
y[4,0,5] 0
y[4,1,2] 0
y[4,1,5] 1
y[4,2,3] 0
y[4,2,4] 1
x[0,0,0,0] 0
x[0,0,0,1] 0
x[0,0,0,2] 1
x[0,0,1,0] 0
x[0,0,1,1] 0
x[0,0,1,2] 0
x[0,0,2,0] 0
x[0,0,2,1] 0
x[0,0,2,2] 0
x[0,0,3,0] 0
x[0,0,3,1] 0
x[0,0,3,2] 0
x[0,0,4,0] 0
x[0,0,4,1] 0
x[0,0,4,2] 1
x[0,1,0,0] 0
x[0,1,0,1] 0
x[0,1,0,2] 0
x[0,1,1,0] 0
x[0,1,1,1] 0
x[0,1,1,2] 0
x[0,1,2,0] 0
x[0,1,2,1] 0
x[0,1,2,2] 0
x[0,1,3,0] 0
x[0,1,3,1] 0
x[0,1,3,2] 0
x[0,1,4,0] 0
x[0,1,4,1] 1
x[0,1,4,2] 0
x[0,2,0,0] 0
x[0,2,0,1] 0
x[0,2,0,2] 0
x[0,2,1,0] 0
x[0,2,1,1] 0
x[0,2,1,2] 0
x[0,2,2,0] 0
x[0,2,2,1] 0
x[0,2,2,2] 0
x[0,2,3,0] 1
x[0,2,3,1] 0
x[0,2,3,2] 0
x[0,2,4,0] 0
x[0,2,4,1] 0
x[0,2,4,2] 0
x[1,0,0,0] 0
x[1,0,0,1] 0
x[1,0,0,2] 0
x[1,0,1,0] 0
x[1,0,1,1] 1
x[1,0,1,2] 0
x[1,0,2,0] 0
x[1,0,2,1] 0
x[1,0,2,2] 0
x[1,0,3,0] 0
x[1,0,3,1] 0
x[1,0,3,2] 0
x[1,0,4,0] 0
x[1,0,4,1] 0
x[1,0,4,2] 1
x[1,1,0,0] 0
x[1,1,0,1] 0
x[1,1,0,2] 0
x[1,1,1,0] 1
x[1,1,1,1] 0
x[1,1,1,2] 0
x[1,1,2,0] 0
x[1,1,2,1] 0
x[1,1,2,2] 0
x[1,1,3,0] 0
x[1,1,3,1] 0
x[1,1,3,2] 0
x[1,1,4,0] 0
x[1,1,4,1] 1
x[1,1,4,2] 0
x[1,2,0,0] 0
x[1,2,0,1] 0
x[1,2,0,2] 0
x[1,2,1,0] 0
x[1,2,1,1] 0
x[1,2,1,2] 0
x[1,2,2,0] 0
x[1,2,2,1] 1
x[1,2,2,2] 0
x[1,2,3,0] 1
x[1,2,3,1] 0
x[1,2,3,2] 1
x[1,2,4,0] 0
x[1,2,4,1] 0
x[1,2,4,2] 1
x[2,0,0,0] 0
x[2,0,0,1] 0
x[2,0,0,2] 0
x[2,0,1,0] 0
x[2,0,1,1] 0
x[2,0,1,2] 0
x[2,0,2,0] 0
x[2,0,2,1] 0
x[2,0,2,2] 1
x[2,0,3,0] 1
x[2,0,3,1] 0
x[2,0,3,2] 1
x[2,0,4,0] 0
x[2,0,4,1] 0
x[2,0,4,2] 1
x[2,1,0,0] 0
x[2,1,0,1] 0
x[2,1,0,2] 0
x[2,1,1,0] 0
x[2,1,1,1] 0
x[2,1,1,2] 0
x[2,1,2,0] 0
x[2,1,2,1] 0
x[2,1,2,2] 0
x[2,1,3,0] 0
x[2,1,3,1] 0
x[2,1,3,2] 1
x[2,1,4,0] 0
x[2,1,4,1] 1
x[2,1,4,2] 0
x[2,2,0,0] 0
x[2,2,0,1] 0
x[2,2,0,2] 0
x[2,2,1,0] 0
x[2,2,1,1] 0
x[2,2,1,2] 0
x[2,2,2,0] 0
x[2,2,2,1] 0
x[2,2,2,2] 0
x[2,2,3,0] 0
x[2,2,3,1] 0
x[2,2,3,2] 0
x[2,2,4,0] 1
x[2,2,4,1] 0
x[2,2,4,2] 1
x[3,0,0,0] 0
x[3,0,0,1] 0
x[3,0,0,2] 0
x[3,0,1,0] 0
x[3,0,1,1] 0
x[3,0,1,2] 0
x[3,0,2,0] 0
x[3,0,2,1] 0
x[3,0,2,2] 0
x[3,0,3,0] 0
x[3,0,3,1] 0
x[3,0,3,2] 0
x[3,0,4,0] 0
x[3,0,4,1] 1
x[3,0,4,2] 0
x[3,1,0,0] 0
x[3,1,0,1] 0
x[3,1,0,2] 0
x[3,1,1,0] 0
x[3,1,1,1] 0
x[3,1,1,2] 0
x[3,1,2,0] 0
x[3,1,2,1] 0
x[3,1,2,2] 0
x[3,1,3,0] 0
x[3,1,3,1] 0
x[3,1,3,2] 0
x[3,1,4,0] 0
x[3,1,4,1] 1
x[3,1,4,2] 0
x[3,2,0,0] 0
x[3,2,0,1] 0
x[3,2,0,2] 0
x[3,2,1,0] 0
x[3,2,1,1] 0
x[3,2,1,2] 0
x[3,2,2,0] 0
x[3,2,2,1] 0
x[3,2,2,2] 0
x[3,2,3,0] 1
x[3,2,3,1] 0
x[3,2,3,2] 0
x[3,2,4,0] 0
x[3,2,4,1] 1
x[3,2,4,2] 0
x[4,0,0,0] 0
x[4,0,0,1] 0
x[4,0,0,2] 0
x[4,0,1,0] 0
x[4,0,1,1] 0
x[4,0,1,2] 0
x[4,0,2,0] 0
x[4,0,2,1] 0
x[4,0,2,2] 0
x[4,0,3,0] 0
x[4,0,3,1] 0
x[4,0,3,2] 0
x[4,0,4,0] 0
x[4,0,4,1] 0
x[4,0,4,2] 0
x[4,1,0,0] 0
x[4,1,0,1] 0
x[4,1,0,2] 0
x[4,1,1,0] 0
x[4,1,1,1] 0
x[4,1,1,2] 0
x[4,1,2,0] 0
x[4,1,2,1] 0
x[4,1,2,2] 0
x[4,1,3,0] 0
x[4,1,3,1] 0
x[4,1,3,2] 0
x[4,1,4,0] 1
x[4,1,4,1] 0
x[4,1,4,2] 0
x[4,2,0,0] 0
x[4,2,0,1] 0
x[4,2,0,2] 0
x[4,2,1,0] 0
x[4,2,1,1] 0
x[4,2,1,2] 0
x[4,2,2,0] 0
x[4,2,2,1] 0
x[4,2,2,2] 0
x[4,2,3,0] 0
x[4,2,3,1] 0
x[4,2,3,2] 0
x[4,2,4,0] 0
x[4,2,4,1] 0
x[4,2,4,2] 0
s[0,0,3] 1.1000000000001425e+01
s[0,0,5] 0
s[0,1,0] 0
s[0,1,2] 2
s[0,2,3] 0
s[0,2,4] 0
s[1,0,2] 0
s[1,0,3] 2.1000000000000725e+01
s[1,1,2] 1.2000000000003412e+01
s[1,1,3] 0
s[1,2,1] 0
s[1,2,4] 1.0000000000003526e+01
s[2,0,1] 0
s[2,0,4] 2.0000000000001226e+01
s[2,1,1] 1.2376181586260467e+01
s[2,1,2] 0
s[2,2,0] 1.6000000000001911e+01
s[2,2,4] 0
s[3,0,2] 1.9000000000001567e+01
s[3,0,4] 0
s[3,1,4] 0
s[3,1,5] 1.4571194628621519e+01
s[3,2,1] 1.3761815862604523e+00
s[3,2,2] 0
s[4,0,0] 1.0000000000001638e+01
s[4,0,5] 0
s[4,1,2] 0
s[4,1,5] 5.0000000000012390e+00
s[4,2,3] 0
s[4,2,4] 1.0000000000012392e+00
Z_FO 44
C286 1
C287 0
C288 0
C289 1
C290 0
C291 1
C292 1
C293 0
C294 0
C295 0
